NAME : gr120
TYPE : OP
DIMENSION : 120
COST_LIMIT : 3471
ROUTE_NODES : 70
ROUTE_SCORE : 4356
ROUTE_COST : 3469
NODE_SEQUENCE_SECTION
1
61
16
60
8
70
116
34
4
26
71
47
55
89
6
84
35
104
99
62
37
67
57
73
63
5
77
64
93
21
115
11
23
9
82
3
119
103
38
40
72
74
87
44
46
50
98
42
17
49
118
20
113
69
65
43
108
18
85
22
86
94
78
45
28
120
32
30
29
76
-1
DEPOT_SECTION
1
-1
EOF
